DIMENSION :10
NODE_COORD_SECTION
1 49.62211078484168 35.88240198528706
2 -34.30874530429378 -18.562382823255646
3 -48.099153004933214 76.04152117775322
4 -68.94235194495646 18.118148403029295
5 56.98126439630951 -99.77090051378063
6 11.897510194630371 -13.024081324275855
7 -99.87201207561576 -83.89479303970025
8 21.096921165357458 73.83734867016932
9 91.74064370253103 -78.03707996302376
10 -26.227365839088534 -41.13683180655394
EOF
